42
1 0 23
2 0 12
2 1 6
3 0 19
3 1 2
3 2 3
4 0 23
4 1 20
4 2 27
4 3 50
5 0 37
5 1 9
5 2 43
5 3 30
5 4 3
6 0 17
6 1 39
6 2 35
6 3 13
6 4 31
6 5 24
7 0 24
7 1 19
7 2 5
7 3 16
7 4 30
7 5 29
7 6 20
8 0 39
8 1 9
8 2 17
8 3 9
8 4 37
8 5 4
8 6 51
8 7 19
9 0 33
9 1 43
9 2 23
9 3 29
9 4 50
9 5 41
9 6 37
9 7 24
9 8 51
10 0 43
10 1 17
10 2 29
10 3 9
10 4 24
10 5 46
10 6 16
10 7 18
10 8 4
10 9 20
11 0 24
11 1 25
11 2 45
11 3 48
11 4 15
11 5 1
11 6 37
11 7 2
11 8 50
11 9 31
11 10 33
12 0 36
12 1 18
12 2 8
12 3 4
12 4 41
12 5 34
12 6 18
12 7 3
12 8 38
12 9 9
12 10 51
12 11 33
13 0 2
13 1 42
13 2 48
13 3 33
13 4 28
13 5 3
13 6 15
13 7 12
13 8 30
13 9 36
13 10 21
13 11 51
13 12 41
14 0 18
14 1 39
14 2 33
14 3 48
14 4 49
14 5 28
14 6 13
14 7 28
14 8 17
14 9 38
14 10 2
14 11 24
14 12 27
14 13 4
15 0 34
15 1 29
15 2 42
15 3 50
15 4 47
15 5 4
15 6 34
15 7 22
15 8 1
15 9 26
15 10 14
15 11 24
15 12 2
15 13 46
15 14 23
16 0 32
16 1 9
16 2 11
16 3 20
16 4 29
16 5 38
16 6 27
16 7 31
16 8 41
16 9 15
16 10 49
16 11 22
16 12 2
16 13 7
16 14 8
16 15 22
17 0 44
17 1 11
17 2 38
17 3 47
17 4 22
17 5 46
17 6 15
17 7 17
17 8 38
17 9 32
17 10 24
17 11 6
17 12 20
17 13 46
17 14 28
17 15 22
17 16 46
18 0 20
18 1 20
18 2 44
18 3 16
18 4 12
18 5 38
18 6 38
18 7 13
18 8 24
18 9 9
18 10 8
18 11 45
18 12 18
18 13 10
18 14 16
18 15 21
18 16 8
18 17 18
19 0 6
19 1 1
19 2 22
19 3 19
19 4 4
19 5 23
19 6 49
19 7 24
19 8 39
19 9 32
19 10 45
19 11 35
19 12 34
19 13 45
19 14 35
19 15 27
19 16 1
19 17 43
19 18 7
20 0 34
20 1 45
20 2 6
20 3 7
20 4 7
20 5 36
20 6 2
20 7 23
20 8 14
20 9 6
20 10 14
20 11 10
20 12 44
20 13 32
20 14 14
20 15 10
20 16 25
20 17 23
20 18 21
20 19 15
21 0 26
21 1 37
21 2 32
21 3 51
21 4 10
21 5 40
21 6 48
21 7 22
21 8 28
21 9 15
21 10 44
21 11 18
21 12 17
21 13 22
21 14 42
21 15 30
21 16 8
21 17 10
21 18 3
21 19 11
21 20 11
22 0 50
22 1 32
22 2 24
22 3 42
22 4 20
22 5 24
22 6 50
22 7 11
22 8 29
22 9 25
22 10 49
22 11 23
22 12 5
22 13 24
22 14 22
22 15 27
22 16 13
22 17 50
22 18 34
22 19 42
22 20 25
22 21 33
23 0 8
23 1 26
23 2 50
23 3 35
23 4 13
23 5 40
23 6 3
23 7 51
23 8 43
23 9 41
23 10 29
23 11 51
23 12 47
23 13 36
23 14 23
23 15 18
23 16 2
23 17 12
23 18 18
23 19 23
23 20 30
23 21 36
23 22 45
24 0 34
24 1 46
24 2 26
24 3 40
24 4 6
24 5 13
24 6 4
24 7 7
24 8 43
24 9 18
24 10 25
24 11 33
24 12 38
24 13 2
24 14 28
24 15 9
24 16 15
24 17 6
24 18 26
24 19 19
24 20 5
24 21 25
24 22 34
24 23 7
25 0 47
25 1 15
25 2 7
25 3 45
25 4 31
25 5 23
25 6 5
25 7 12
25 8 49
25 9 44
25 10 48
25 11 23
25 12 28
25 13 15
25 14 6
25 15 40
25 16 14
25 17 29
25 18 42
25 19 14
25 20 31
25 21 33
25 22 38
25 23 12
25 24 22
26 0 38
26 1 14
26 2 49
26 3 28
26 4 23
26 5 15
26 6 23
26 7 11
26 8 35
26 9 9
26 10 32
26 11 35
26 12 37
26 13 31
26 14 36
26 15 2
26 16 43
26 17 32
26 18 7
26 19 18
26 20 18
26 21 28
26 22 8
26 23 33
26 24 29
26 25 11
27 0 41
27 1 3
27 2 39
27 3 11
27 4 3
27 5 38
27 6 32
27 7 18
27 8 13
27 9 37
27 10 37
27 11 24
27 12 14
27 13 6
27 14 19
27 15 5
27 16 38
27 17 29
27 18 36
27 19 8
27 20 32
27 21 21
27 22 36
27 23 48
27 24 33
27 25 8
27 26 35
28 0 34
28 1 30
28 2 21
28 3 27
28 4 7
28 5 23
28 6 2
28 7 22
28 8 8
28 9 39
28 10 16
28 11 8
28 12 2
28 13 44
28 14 28
28 15 2
28 16 3
28 17 33
28 18 6
28 19 5
28 20 47
28 21 20
28 22 7
28 23 10
28 24 19
28 25 16
28 26 4
28 27 46
29 0 40
29 1 8
29 2 2
29 3 33
29 4 8
29 5 12
29 6 29
29 7 16
29 8 40
29 9 4
29 10 15
29 11 13
29 12 44
29 13 9
29 14 31
29 15 24
29 16 23
29 17 14
29 18 8
29 19 18
29 20 40
29 21 7
29 22 3
29 23 22
29 24 31
29 25 48
29 26 49
29 27 37
29 28 20
30 0 17
30 1 23
30 2 42
30 3 12
30 4 18
30 5 10
30 6 43
30 7 46
30 8 16
30 9 15
30 10 38
30 11 36
30 12 21
30 13 9
30 14 37
30 15 25
30 16 50
30 17 16
30 18 36
30 19 17
30 20 12
30 21 42
30 22 2
30 23 45
30 24 1
30 25 51
30 26 51
30 27 2
30 28 16
30 29 8
31 0 42
31 1 33
31 2 46
31 3 49
31 4 51
31 5 18
31 6 41
31 7 45
31 8 25
31 9 39
31 10 24
31 11 46
31 12 45
31 13 36
31 14 19
31 15 24
31 16 26
31 17 47
31 18 7
31 19 8
31 20 20
31 21 42
31 22 47
31 23 32
31 24 11
31 25 1
31 26 29
31 27 46
31 28 45
31 29 32
31 30 10
32 0 6
32 1 16
32 2 32
32 3 51
32 4 1
32 5 22
32 6 3
32 7 11
32 8 51
32 9 34
32 10 20
32 11 51
32 12 26
32 13 17
32 14 27
32 15 16
32 16 8
32 17 36
32 18 23
32 19 3
32 20 31
32 21 31
32 22 12
32 23 19
32 24 15
32 25 51
32 26 1
32 27 22
32 28 26
32 29 40
32 30 7
32 31 24
33 0 17
33 1 32
33 2 34
33 3 39
33 4 35
33 5 44
33 6 40
33 7 34
33 8 1
33 9 31
33 10 47
33 11 7
33 12 45
33 13 26
33 14 36
33 15 17
33 16 9
33 17 5
33 18 34
33 19 47
33 20 39
33 21 16
33 22 44
33 23 31
33 24 51
33 25 41
33 26 30
33 27 40
33 28 2
33 29 20
33 30 29
33 31 15
33 32 7
34 0 3
34 1 37
34 2 38
34 3 23
34 4 4
34 5 17
34 6 49
34 7 37
34 8 49
34 9 45
34 10 20
34 11 8
34 12 47
34 13 15
34 14 28
34 15 10
34 16 27
34 17 5
34 18 49
34 19 51
34 20 32
34 21 36
34 22 51
34 23 3
34 24 32
34 25 10
34 26 37
34 27 51
34 28 30
34 29 40
34 30 26
34 31 26
34 32 51
34 33 10
35 0 11
35 1 4
35 2 7
35 3 32
35 4 46
35 5 51
35 6 7
35 7 44
35 8 38
35 9 36
35 10 21
35 11 37
35 12 19
35 13 24
35 14 4
35 15 8
35 16 38
35 17 44
35 18 8
35 19 17
35 20 28
35 21 42
35 22 15
35 23 40
35 24 24
35 25 2
35 26 41
35 27 20
35 28 48
35 29 45
35 30 16
35 31 32
35 32 18
35 33 17
35 34 34
36 0 27
36 1 26
36 2 26
36 3 24
36 4 17
36 5 49
36 6 41
36 7 28
36 8 25
36 9 41
36 10 26
36 11 21
36 12 39
36 13 24
36 14 41
36 15 10
36 16 28
36 17 9
36 18 18
36 19 40
36 20 28
36 21 34
36 22 29
36 23 13
36 24 25
36 25 30
36 26 42
36 27 28
36 28 28
36 29 34
36 30 40
36 31 12
36 32 30
36 33 18
36 34 36
36 35 32
37 0 23
37 1 47
37 2 26
37 3 40
37 4 51
37 5 34
37 6 49
37 7 2
37 8 13
37 9 11
37 10 50
37 11 1
37 12 17
37 13 47
37 14 13
37 15 24
37 16 40
37 17 37
37 18 36
37 19 11
37 20 25
37 21 48
37 22 49
37 23 12
37 24 13
37 25 6
37 26 31
37 27 24
37 28 41
37 29 43
37 30 17
37 31 41
37 32 42
37 33 42
37 34 21
37 35 41
37 36 16
38 0 49
38 1 16
38 2 32
38 3 4
38 4 10
38 5 50
38 6 14
38 7 22
38 8 18
38 9 26
38 10 23
38 11 31
38 12 50
38 13 48
38 14 18
38 15 43
38 16 15
38 17 33
38 18 10
38 19 30
38 20 28
38 21 16
38 22 24
38 23 22
38 24 24
38 25 23
38 26 2
38 27 14
38 28 27
38 29 21
38 30 40
38 31 49
38 32 5
38 33 39
38 34 9
38 35 31
38 36 9
38 37 36
39 0 4
39 1 17
39 2 37
39 3 6
39 4 40
39 5 39
39 6 6
39 7 1
39 8 48
39 9 41
39 10 51
39 11 41
39 12 40
39 13 34
39 14 46
39 15 29
39 16 2
39 17 42
39 18 7
39 19 3
39 20 26
39 21 33
39 22 41
39 23 24
39 24 35
39 25 35
39 26 10
39 27 45
39 28 22
39 29 49
39 30 29
39 31 3
39 32 23
39 33 46
39 34 19
39 35 2
39 36 42
39 37 19
39 38 16
40 0 31
40 1 10
40 2 16
40 3 39
40 4 34
40 5 8
40 6 37
40 7 22
40 8 49
40 9 50
40 10 5
40 11 17
40 12 48
40 13 38
40 14 29
40 15 31
40 16 22
40 17 27
40 18 13
40 19 18
40 20 25
40 21 6
40 22 35
40 23 43
40 24 38
40 25 28
40 26 10
40 27 44
40 28 44
40 29 21
40 30 39
40 31 32
40 32 10
40 33 25
40 34 35
40 35 46
40 36 29
40 37 32
40 38 45
40 39 6
41 0 41
41 1 17
41 2 49
41 3 31
41 4 23
41 5 1
41 6 13
41 7 20
41 8 43
41 9 35
41 10 13
41 11 47
41 12 23
41 13 9
41 14 34
41 15 39
41 16 5
41 17 47
41 18 16
41 19 21
41 20 31
41 21 11
41 22 12
41 23 12
41 24 38
41 25 39
41 26 22
41 27 33
41 28 40
41 29 45
41 30 47
41 31 44
41 32 46
41 33 38
41 34 29
41 35 33
41 36 14
41 37 27
41 38 13
41 39 19
41 40 31
